
Gurobi 7.5.2 (linux64) logging started Sat Jun 23 18:01:52 2018

Changed value of parameter LogFile to result/ilp/simNo_8-n_100-m_40-s_4-minVAF_0.05-cov_2000-k_2-fn_0.10-fp_0.0001-na_0.15.ILP.gurobiSolverLog
   Prev: gurobi.log  Default: 
Changed value of parameter TimeLimit to 86400.0
   Prev: 1e+100  Min: 0.0  Max: 1e+100  Default: 1e+100
Optimize a model with 1265601 rows, 330440 columns and 3489120 nonzeros
Variable types: 0 continuous, 330440 integer (330440 binary)
Coefficient statistics:
  Matrix range     [2e-03, 3e+00]
  Objective range  [7e-01, 9e+00]
  Bounds range     [1e+00, 1e+00]
  RHS range        [2e-01, 2e+00]
Found heuristic solution: objective -14768.49973
Presolve removed 327206 rows and 215973 columns (presolve time = 5s) ...
Presolve removed 343837 rows and 215973 columns (presolve time = 10s) ...
Presolve removed 344291 rows and 215973 columns (presolve time = 16s) ...
Presolve removed 344291 rows and 215973 columns (presolve time = 20s) ...
Presolve removed 344291 rows and 215973 columns (presolve time = 25s) ...
Presolve removed 344291 rows and 215973 columns (presolve time = 30s) ...
Presolve removed 344291 rows and 215973 columns (presolve time = 35s) ...
Presolve removed 344291 rows and 215973 columns (presolve time = 40s) ...
Presolve removed 344291 rows and 215973 columns (presolve time = 45s) ...
Presolve removed 344291 rows and 215973 columns (presolve time = 50s) ...
Presolve removed 344291 rows and 215973 columns (presolve time = 55s) ...
Presolve removed 344291 rows and 215973 columns (presolve time = 62s) ...
Presolve removed 344291 rows and 215973 columns
Presolve time: 63.99s
Presolved: 921310 rows, 114467 columns, 2556070 nonzeros
Variable types: 0 continuous, 114467 integer (114467 binary)
Presolved: 114467 rows, 1035777 columns, 2670537 nonzeros

Presolve removed 114467 rows and 1035777 columns

Root simplex log...

Iteration    Objective       Primal Inf.    Dual Inf.      Time
       0    1.6810450e+01   0.000000e+00   9.934600e+04     75s
    4735   -6.7597176e+01   0.000000e+00   1.432450e+04     75s
   15039   -2.3426565e+02   0.000000e+00   9.501750e+03     80s
   18419   -2.4425360e+02   0.000000e+00   0.000000e+00     82s
   18419   -2.4425360e+02   0.000000e+00   0.000000e+00     85s

Root relaxation: objective -2.442536e+02, 18419 iterations, 17.58 seconds
Total elapsed time = 86.34s
Total elapsed time = 112.72s
Total elapsed time = 129.93s
Total elapsed time = 145.57s

    Nodes    |    Current Node    |     Objective Bounds      |     Work
 Expl Unexpl |  Obj  Depth IntInf | Incumbent    BestBd   Gap | It/Node Time

     0     0 -244.25360    0  828 -14768.500 -244.25360  98.3%     -  157s
H    0     0                    -301.0884674 -244.25360  18.9%     -  173s
     0     0 -248.51814    0  840 -301.08847 -248.51814  17.5%     -  194s
     0     0 -252.78267    0  823 -301.08847 -252.78267  16.0%     -  232s
     0     0 -252.99130    0 1004 -301.08847 -252.99130  16.0%     -  260s
     0     0 -252.99231    0 1004 -301.08847 -252.99231  16.0%     -  272s
     0     0 -255.43118    0  926 -301.08847 -255.43118  15.2%     -  293s
H    0     0                    -300.6519979 -255.43118  15.0%     -  303s
     0     0 -255.43118    0  928 -300.65200 -255.43118  15.0%     -  313s
     0     0 -255.43118    0  921 -300.65200 -255.43118  15.0%     -  330s
     0     0 -255.43118    0  928 -300.65200 -255.43118  15.0%     -  347s
     0     0 -258.04561    0  989 -300.65200 -258.04561  14.2%     -  427s
H    0     0                    -300.2998227 -258.04561  14.1%     -  436s
     0     0 -258.65133    0 1235 -300.29982 -258.65133  13.9%     -  456s
     0     0 -258.65133    0 1232 -300.29982 -258.65133  13.9%     -  467s
     0     0 -259.99027    0 1200 -300.29982 -259.99027  13.4%     -  492s
H    0     0                    -298.5197312 -259.99027  12.9%     -  508s
     0     0 -259.99027    0 1196 -298.51973 -259.99027  12.9%     -  524s
     0     0 -261.28344    0 1012 -298.51973 -261.28344  12.5%     -  553s
     0     0 -261.90053    0 1215 -298.51973 -261.90053  12.3%     -  581s
     0     0 -261.92589    0 1206 -298.51973 -261.92589  12.3%     -  591s
     0     0 -261.92589    0 1207 -298.51973 -261.92589  12.3%     -  600s
     0     0 -263.23078    0  751 -298.51973 -263.23078  11.8%     -  622s
     0     0 -263.23078    0  768 -298.51973 -263.23078  11.8%     -  640s
     0     0 -264.47821    0 1001 -298.51973 -264.47821  11.4%     -  662s
     0     0 -264.76291    0 1006 -298.51973 -264.76291  11.3%     -  689s
     0     0 -264.83846    0 1007 -298.51973 -264.83846  11.3%     -  702s
     0     0 -264.86691    0  992 -298.51973 -264.86691  11.3%     -  713s
     0     0 -264.87288    0 1008 -298.51973 -264.87288  11.3%     -  724s
     0     0 -264.87288    0 1010 -298.51973 -264.87288  11.3%     -  734s
     0     0 -268.89651    0  885 -298.51973 -268.89651  9.92%     -  765s
     0     0 -269.20112    0  898 -298.51973 -269.20112  9.82%     -  787s
     0     0 -269.20112    0  821 -298.51973 -269.20112  9.82%     -  797s
     0     0 -269.95005    0  969 -298.51973 -269.95005  9.57%     -  819s
     0     0 -270.13038    0  967 -298.51973 -270.13038  9.51%     -  841s
     0     0 -270.21251    0 1002 -298.51973 -270.21251  9.48%     -  854s
     0     0 -270.30514    0 1008 -298.51973 -270.30514  9.45%     -  866s
     0     0 -270.30514    0 1004 -298.51973 -270.30514  9.45%     -  875s
     0     0 -271.97334    0  891 -298.51973 -271.97334  8.89%     -  895s
     0     0 -272.15281    0  936 -298.51973 -272.15281  8.83%     -  919s
     0     0 -272.15667    0  941 -298.51973 -272.15667  8.83%     -  930s
     0     0 -272.18789    0 1017 -298.51973 -272.18789  8.82%     -  941s
     0     0 -272.18789    0 1018 -298.51973 -272.18789  8.82%     -  950s
     0     0 -274.59803    0  721 -298.51973 -274.59803  8.01%     -  976s
     0     0 -274.62539    0 1007 -298.51973 -274.62539  8.00%     -  997s
     0     0 -274.62539    0  973 -298.51973 -274.62539  8.00%     - 1007s
     0     0 -276.39641    0  888 -298.51973 -276.39641  7.41%     - 1031s
     0     0 -276.39641    0  896 -298.51973 -276.39641  7.41%     - 1052s
     0     0 -276.49053    0  772 -298.51973 -276.49053  7.38%     - 1073s
     0     0 -276.54078    0 1006 -298.51973 -276.54078  7.36%     - 1093s
     0     0 -276.62353    0 1019 -298.51973 -276.62353  7.33%     - 1104s
     0     0 -276.65790    0 1012 -298.51973 -276.65790  7.32%     - 1116s
     0     0 -276.65790    0  994 -298.51973 -276.65790  7.32%     - 1125s
     0     0 -277.13990    0 1007 -298.51973 -277.13990  7.16%     - 1153s
     0     0 -277.28467    0 1021 -298.51973 -277.28467  7.11%     - 1185s
     0     0 -277.33402    0 1026 -298.51973 -277.33402  7.10%     - 1196s
     0     0 -277.33402    0 1030 -298.51973 -277.33402  7.10%     - 1206s
     0     0 -277.42317    0 1022 -298.51973 -277.42317  7.07%     - 1225s
     0     0 -277.79775    0 1023 -298.51973 -277.79775  6.94%     - 1252s
     0     0 -277.83910    0 1028 -298.51973 -277.83910  6.93%     - 1264s
     0     0 -277.87318    0 1034 -298.51973 -277.87318  6.92%     - 1273s
     0     0 -277.87409    0 1035 -298.51973 -277.87409  6.92%     - 1282s
     0     0 -278.60952    0 1014 -298.51973 -278.60952  6.67%     - 1304s
     0     0 -278.71412    0 1031 -298.51973 -278.71412  6.63%     - 1326s
     0     0 -278.72141    0 1029 -298.51973 -278.72141  6.63%     - 1335s
     0     0 -278.72141    0 1033 -298.51973 -278.72141  6.63%     - 1343s
     0     0 -279.38923    0 1023 -298.51973 -279.38923  6.41%     - 1366s
     0     0 -279.38927    0 1028 -298.51973 -279.38927  6.41%     - 1387s
     0     0 -280.64419    0 1009 -298.51973 -280.64419  5.99%     - 1412s
     0     0 -280.64661    0 1005 -298.51973 -280.64661  5.99%     - 1434s
     0     0 -280.96797    0  942 -298.51973 -280.96797  5.88%     - 1455s
     0     0 -281.06060    0  992 -298.51973 -281.06060  5.85%     - 1478s
     0     0 -281.06288    0  997 -298.51973 -281.06288  5.85%     - 1489s
     0     0 -281.06288    0 1012 -298.51973 -281.06288  5.85%     - 1505s
     0     0 -281.25646    0  949 -298.51973 -281.25646  5.78%     - 1525s
     0     0 -281.32685    0 1021 -298.51973 -281.32685  5.76%     - 1536s
     0     0 -281.32685    0 1026 -298.51973 -281.32685  5.76%     - 1544s
     0     0 -282.06026    0  960 -298.51973 -282.06026  5.51%     - 1565s
     0     0 -282.33636    0  888 -298.51973 -282.33636  5.42%     - 1585s
     0     0 -282.36617    0  913 -298.51973 -282.36617  5.41%     - 1596s
     0     0 -282.39871    0  914 -298.51973 -282.39871  5.40%     - 1606s
     0     0 -282.42917    0  922 -298.51973 -282.42917  5.39%     - 1614s
     0     0 -282.44681    0  922 -298.51973 -282.44681  5.38%     - 1623s
     0     0 -282.44681    0  926 -298.51973 -282.44681  5.38%     - 1630s
     0     0 -282.78600    0  919 -298.51973 -282.78600  5.27%     - 1647s
     0     0 -282.90401    0  916 -298.51973 -282.90401  5.23%     - 1664s
     0     0 -282.90401    0  876 -298.51973 -282.90401  5.23%     - 1671s
     0     0 -282.99765    0  957 -298.51973 -282.99765  5.20%     - 1686s
     0     0 -283.01120    0  963 -298.51973 -283.01120  5.20%     - 1701s
     0     0 -283.01569    0  965 -298.51973 -283.01569  5.19%     - 1709s
     0     0 -283.01625    0  965 -298.51973 -283.01625  5.19%     - 1716s
     0     0 -283.54602    0  956 -298.51973 -283.54602  5.02%     - 1735s
     0     0 -283.69358    0 1021 -298.51973 -283.69358  4.97%     - 1751s
     0     0 -283.80944    0 1023 -298.51973 -283.80944  4.93%     - 1760s
     0     0 -283.82033    0 1026 -298.51973 -283.82033  4.92%     - 1768s
     0     0 -283.83239    0 1026 -298.51973 -283.83239  4.92%     - 1776s
     0     0 -283.83239    0 1026 -298.51973 -283.83239  4.92%     - 1784s
     0     0 -284.22825    0  965 -298.51973 -284.22825  4.79%     - 1800s
     0     0 -284.32552    0  918 -298.51973 -284.32552  4.75%     - 1818s
     0     0 -284.32552    0  918 -298.51973 -284.32552  4.75%     - 1827s
     0     0 -284.47439    0  997 -298.51973 -284.47439  4.70%     - 1844s
     0     0 -284.61666    0  992 -298.51973 -284.61666  4.66%     - 1862s
     0     0 -284.61666    0  993 -298.51973 -284.61666  4.66%     - 1869s
     0     0 -284.99151    0  910 -298.51973 -284.99151  4.53%     - 1888s
     0     0 -285.03627    0  918 -298.51973 -285.03627  4.52%     - 1904s
     0     0 -285.03627    0  890 -298.51973 -285.03627  4.52%     - 1913s
     0     0 -285.03627    0  895 -298.51973 -285.03627  4.52%     - 1927s
     0     0 -285.03627    0  882 -298.51973 -285.03627  4.52%     - 2079s
     0     2 -285.03764    0  882 -298.51973 -285.03764  4.52%     - 2172s
     1     3 -287.00428    1  815 -298.51973 -285.03764  4.52%  4421 2197s
     2     4 -287.79479    2  527 -298.51973 -285.03764  4.52%  2675 2208s
     3     5 -288.32786    3  556 -298.51973 -285.03764  4.52%  1840 2211s
     4     4     cutoff    3      -298.51973 -285.03764  4.52%  1546 2219s
     5     5 -289.28738    4  531 -298.51973 -285.03764  4.52%  1386 2228s
     6     6 -289.57168    5  523 -298.51973 -285.03764  4.52%  1195 2232s
     7     7 -290.10475    6  490 -298.51973 -285.03764  4.52%  1075 2236s
     9     7     cutoff    7      -298.51973 -285.03764  4.52%   930 2241s
    11     9 -295.96848    8  364 -298.51973 -285.03764  4.52%   832 2250s
    14    10     cutoff   10      -298.51973 -285.03764  4.52%   719 2255s
    17    11     cutoff   12      -298.51973 -285.03764  4.52%   627 2261s
    21    15 -294.90235   16  391 -298.51973 -285.03764  4.52%   517 2266s
    25    15 -294.90235   18  419 -298.51973 -285.03764  4.52%   442 2270s
    29    17 -296.67924   21  394 -298.51973 -285.03764  4.52%   386 2275s
    34    16 -288.09638    1  563 -298.51973 -287.02561  3.85%   468 2308s
    35    17 -288.50465    2 1089 -298.51973 -287.02561  3.85%   485 2329s
    36    18 -289.99066    3  190 -298.51973 -287.02561  3.85%   479 2333s
    37    19 -291.05680    4  187 -298.51973 -287.02561  3.85%   469 2336s
    38    20 -292.48558    4  398 -298.51973 -287.02561  3.85%   480 2350s
    41    23 -293.18906    7  185 -298.51973 -287.02561  3.85%   448 2355s
    43    23 -294.25520    8  180 -298.51973 -287.02561  3.85%   435 2360s
    45    23 -295.32133    9  183 -298.51973 -287.02561  3.85%   430 2367s
    46    24 -297.86789    9  321 -298.51973 -287.02561  3.85%   431 2372s
    50    26 -296.38746   12  175 -298.51973 -287.02561  3.85%   399 2375s
    57    25 -296.30983    2  715 -298.51973 -288.09707  3.49%   396 2403s
    59    27 -298.02232    3  645 -298.51973 -288.09707  3.49%   402 2412s
    62    26 -296.90877    4 1010 -298.51973 -288.09707  3.49%   398 2420s
    66    24     cutoff    5      -298.51973 -288.09707  3.49%   400 2431s
    68    24 -289.51096    2  445 -298.51973 -288.32786  3.41%   417 2448s
    69    25 -290.42767    3  313 -298.51973 -288.32786  3.41%   422 2458s
    70    26 -290.51652    4  324 -298.51973 -288.32786  3.41%   424 2463s
    71    25     cutoff    4      -298.51973 -288.32786  3.41%   430 2469s
    72    26 -292.02687    5  307 -298.51973 -288.32786  3.41%   432 2474s
    73    27 -293.09301    6  305 -298.51973 -288.32786  3.41%   428 2476s
    76    30 -294.69221    9  219 -298.51973 -288.32786  3.41%   416 2481s
    79    31     cutoff   11      -298.51973 -288.32786  3.41%   410 2486s
    81    29     cutoff    9      -298.51973 -288.32786  3.41%   406 2490s
    84    30     cutoff   14      -298.51973 -288.32786  3.41%   396 2495s
    87    31 -297.67738   15  217 -298.51973 -288.32786  3.41%   389 2501s
    93    29 -294.19159    4  457 -298.51973 -288.51435  3.35%   396 2517s
    95    29     cutoff    6      -298.51973 -288.51435  3.35%   392 2520s
    98    30     cutoff    8      -298.51973 -288.51435  3.35%   385 2525s
   101    31 -298.45613    9  254 -298.51973 -288.51435  3.35%   377 2532s
   105    29 -290.53962    3  314 -298.51973 -289.28738  3.09%   374 2543s
   106    30 -290.53962    4  271 -298.51973 -289.28738  3.09%   371 2546s
   107    31 -296.93642    5  109 -298.51973 -289.28738  3.09%   376 2554s
   108    32 -296.93642    6   89 -298.51973 -289.28738  3.09%   373 2555s
   113    31     cutoff    9      -298.51973 -289.28738  3.09%   358 2560s
   115    31 -297.38999    5  265 -298.51973 -289.52167  3.01%   373 2572s
   117    31 -297.81645    6  312 -298.51973 -289.52167  3.01%   371 2575s
   120    30 -291.47978    3  373 -298.51973 -289.57168  3.00%   376 2590s
   121    31 -292.22803    4  396 -298.51973 -289.57168  3.00%   379 2597s
   123    33 -292.60088    6 1122 -298.51973 -289.57168  3.00%   379 2606s
   125    35 -294.53269    8  183 -298.51973 -289.57168  3.00%   375 2611s
   127    37 -296.66495   10  153 -298.51973 -289.57168  3.00%   370 2615s
   134    34     cutoff    6      -298.51973 -290.53962  2.67%   356 2620s
   135    35 -297.14137    4  388 -298.51973 -290.53962  2.67%   372 2631s
   137    35 -297.14158    5  386 -298.51973 -290.53962  2.67%   368 2635s
   140    36 -297.25826    7  588 -298.51973 -290.53962  2.67%   363 2642s
   143    35     cutoff    9      -298.51973 -290.53962  2.67%   356 2645s
   146    34 -290.99653    5  281 -298.51973 -290.61103  2.65%   353 2654s
   147    35 -291.96113    6  272 -298.51973 -290.61103  2.65%   353 2659s
   149    37 -292.67188    8  268 -298.51973 -290.61103  2.65%   352 2663s
   150    36     cutoff    8      -298.51973 -290.61103  2.65%   357 2671s
   151    37 -293.20495    9  272 -298.51973 -290.61103  2.65%   361 2675s
   152    36     cutoff    7      -298.51973 -290.61103  2.65%   368 2682s
   153    37 -295.70786    9  284 -298.51973 -290.61103  2.65%   373 2692s
   154    38 -293.73802   10  219 -298.51973 -290.61103  2.65%   374 2695s
   156    40 -297.54563   12  256 -298.51973 -290.61103  2.65%   375 2702s
   158    42 -298.35793   14  215 -298.51973 -290.61103  2.65%   371 2706s
   163    39 -294.69221    5  328 -298.51973 -291.05680  2.50%   367 2717s
   165    41 -295.84035    7  320 -298.51973 -291.05680  2.50%   366 2723s
   166    40     cutoff    8      -298.51973 -291.05680  2.50%   365 2725s
   168    40     cutoff    9      -298.51973 -291.05680  2.50%   365 2730s
   171    39 -296.60077    5  430 -298.51973 -291.14883  2.47%   376 2748s
   173    37     cutoff    6      -298.51973 -291.14883  2.47%   375 2751s
   174    38 -292.21972    6  346 -298.51973 -291.33393  2.41%   375 2757s
   177    39     cutoff    9      -298.51973 -291.33393  2.41%   372 2763s
   178    40 -295.32133    9  229 -298.51973 -291.33393  2.41%   376 2769s
   179    41 -297.45360   10  202 -298.51973 -291.33393  2.41%   375 2772s
   182    38     cutoff   10      -298.51973 -291.33393  2.41%   371 2775s
   183    39 -296.16659    6  341 -298.51973 -291.48080  2.36%   380 2788s
   184    38     cutoff    7      -298.51973 -291.48080  2.36%   379 2791s
   185    37     cutoff    7      -298.51973 -291.48080  2.36%   396 2813s
   186    38 -291.77076    4  280 -298.51973 -291.70395  2.28%   397 2819s
   187    39 -292.13690    5  338 -298.51973 -291.70395  2.28%   398 2827s
   188    40 -293.03859    6  337 -298.51973 -291.70395  2.28%   400 2834s
   189    39     cutoff    7      -298.51973 -291.70395  2.28%   401 2838s
   190    40 -293.79080    7  331 -298.51973 -291.70395  2.28%   402 2843s
   191    39     cutoff    8      -298.51973 -291.70395  2.28%   405 2849s
   192    40 -294.61378    8  324 -298.51973 -291.70395  2.28%   406 2855s
   194    42 -296.03529   10  331 -298.51973 -291.70395  2.28%   405 2861s
   199    47 -297.10142   15  317 -298.51973 -291.70395  2.28%   397 2866s
   202    48     cutoff   18      -298.51973 -291.70395  2.28%   393 2870s
   206    44     cutoff    9      -298.51973 -291.77076  2.26%   389 2875s
   207    43     cutoff    5      -298.51973 -292.13758  2.14%   391 2881s
   208    42     cutoff    6      -298.51973 -292.22817  2.11%   393 2887s
   209    43 -294.01550    5  320 -298.51973 -292.22824  2.11%   397 2894s
   210    44 -294.37088    6  320 -298.51973 -292.22824  2.11%   398 2899s
   211    45 -295.13896    7  335 -298.51973 -292.22824  2.11%   398 2902s
   212    46 -295.91669    8  330 -298.51973 -292.22824  2.11%   398 2906s
   214    48 -297.24722   10  326 -298.51973 -292.22824  2.11%   397 2911s
   218    46     cutoff   11      -298.51973 -292.22824  2.11%   392 2915s
   220    46 -294.01594    6  282 -298.51973 -292.23368  2.11%   395 2927s
   221    47 -294.38208    7  339 -298.51973 -292.23368  2.11%   396 2930s
   223    49 -296.03598    9  333 -298.51973 -292.23368  2.11%   395 2936s
   226    48     cutoff   11      -298.51973 -292.23368  2.11%   392 2940s
   229    51 -297.64079   13  330 -298.51973 -292.23368  2.11%   389 2945s
   235    49 -294.54702    8  398 -298.51973 -292.24085  2.10%   385 2957s
   237    47     cutoff    9      -298.51973 -292.24085  2.10%   384 2963s
   238    48 -294.01363    7  364 -298.51973 -292.38196  2.06%   386 2970s
   240    48 -296.81744    8  342 -298.51973 -292.38196  2.06%   386 2977s
   242    48 -297.94003    9  345 -298.51973 -292.38196  2.06%   386 2982s
   245    45     cutoff    6      -298.51973 -292.74088  1.94%   386 2989s
   246    44     cutoff    5      -298.51973 -292.77008  1.93%   388 2992s
   248    44 -296.44618    5  249 -298.51973 -293.20570  1.78%   389 3001s
   250    44 -297.56877    6  247 -298.51973 -293.20570  1.78%   389 3006s
   253    43 -295.45470   10  333 -298.51973 -293.40274  1.71%   390 3013s
   255    45 -295.47830   12  608 -298.51973 -293.40274  1.71%   387 3016s
   258    44 -297.78200   12  391 -298.51973 -293.40274  1.71%   390 3028s
   260    42     cutoff   13      -298.51973 -293.40274  1.71%   387 3030s
   261    43 -297.24861   11  354 -298.51973 -293.40274  1.71%   393 3039s
   262    42     cutoff   12      -298.51973 -293.40274  1.71%   392 3040s
   264    42 -295.70857    7  373 -298.51973 -293.46655  1.69%   392 3045s
   266    44 -296.17978    9  389 -298.51973 -293.46655  1.69%   391 3051s
   268    46 -296.18001   11  379 -298.51973 -293.46655  1.69%   389 3055s
   270    48 -296.49655   13  303 -298.51973 -293.46655  1.69%   387 3060s
   274    46     cutoff   14      -298.51973 -293.46655  1.69%   383 3065s
   277    43     cutoff    7      -298.51973 -293.73802  1.60%   382 3070s
   279    43     cutoff   12      -298.51973 -293.83621  1.57%   382 3077s
   281    43     cutoff   13      -298.51973 -293.83621  1.57%   384 3089s
   282    44 -296.85367   13  547 -298.51973 -293.83621  1.57%   383 3092s
   284    42     cutoff   14      -298.51973 -293.83621  1.57%   382 3095s
   285    43 -297.03461   15  306 -298.51973 -293.83621  1.57%   382 3100s
   290    40     cutoff   14      -298.51973 -293.83621  1.57%   376 3105s
   293    37     cutoff    6      -298.51973 -294.01594  1.51%   377 3113s
   294    36     cutoff    7      -298.51973 -294.37434  1.39%   377 3116s
   296    34     cutoff    8      -298.51973 -294.58876  1.32%   376 3120s
   298    34 -296.32386    5  462 -298.51973 -294.69221  1.28%   376 3126s
   300    36 -298.10075    7  262 -298.51973 -294.69221  1.28%   375 3130s
   305    31     cutoff    6      -298.51973 -294.75593  1.26%   372 3138s
   306    30     cutoff    9      -298.51973 -294.80415  1.24%   372 3141s
   308    28     cutoff   10      -298.51973 -295.14307  1.13%   372 3147s
   311    25     cutoff    9      -298.51973 -295.59882  0.98%   371 3151s
   313    25 -297.31332   10  366 -298.51973 -295.70802  0.94%   373 3161s
   314    24     cutoff   11      -298.51973 -295.70802  0.94%   374 3165s
   317    25 -296.23298   11  609 -298.51973 -295.70829  0.94%   375 3177s
   318    24     cutoff   12      -298.51973 -295.70829  0.94%   375 3180s
   319    25 -298.17363   11  395 -298.51973 -295.70913  0.94%   378 3189s
   320    24     cutoff   12      -298.51973 -295.70913  0.94%   377 3190s
   324    24 -296.68116   10  328 -298.51973 -295.71887  0.94%   377 3198s
   325    25 -297.48076   11  329 -298.51973 -295.71887  0.94%   377 3201s
   329    23     cutoff   12      -298.51973 -295.71887  0.94%   373 3205s
   333    23 -296.85831    9  277 -298.51973 -295.84895  0.89%   372 3213s
   334    24 -297.44286   10  331 -298.51973 -295.84895  0.89%   372 3216s
   338    22     cutoff   11      -298.51973 -295.84895  0.89%   369 3220s
   343    19 -297.38999    9  347 -298.51973 -295.96848  0.85%   366 3228s
   346    16     cutoff    9      -298.51973 -295.96848  0.85%   364 3230s
   350    12     cutoff   11      -298.51973 -296.03529  0.83%   362 3235s
   353     9     cutoff   12      -298.51973 -296.14755  0.79%   361 3240s
   354     8     cutoff    9      -298.51973 -296.18070  0.78%   366 3245s
   355     9 -298.50478   12  319 -298.51973 -296.22474  0.77%   367 3250s
   358     8 -298.50360   10  282 -298.51973 -296.22495  0.77%   369 3261s
   361     7 -298.50381   11  284 -298.51973 -296.38746  0.71%   369 3267s
   366     2     cutoff   12      -298.51973 -297.94336  0.19%   365 3270s

Cutting planes:
  Gomory: 1
  Zero half: 403

Explored 369 nodes (216081 simplex iterations) in 3272.75 seconds
Thread count was 1 (of 80 available processors)

Solution count 5: -298.52 -300.3 -300.652 ... -14768.5

Optimal solution found (tolerance 1.00e-04)
Best objective -2.985197311943e+02, best bound -2.985197311943e+02, gap 0.0000%
